2 59 71 7 53 75 43 
45 68 
88 33 85 16 98 97 
89 
51 74 
31 63 6 79 24 
14 39 28 47 64 30 65 90 12 84 9 56 55 91 70 77 25 
94 4 
73 95 44 67 81 20 
52 21 41 3 99 46 100 32 
5 76 96 22 
61 92 19 37 54 35 
29 
62 82 83 40 49 87 18 86 26 93 17 
72 27 42 15 36 11 69 23 8 57 38 78 34 66 10 60 50 1 80 13 58 48 

